# ---------- Initialize Simulation ---------------------
clear
units metal
dimension 3
boundary p p p
atom_style atomic
atom_modify map array


# ---------- read data ---------------------
read_data Total.lmp


# ---------- define variables ---------------------
variable stemperature equal 300 # temperature in kelvin
# variable alattice equal 2.863 # lattice constant (unit A)
variable myseed equal 12345 # the value seed for the velocity
variable time_step1 equal 0.001 # time step in pico seconds
variable time_step2 equal 0.001 # time step in pico seconds
variable time_eq equal 20000 # time steps for the equlibration part
variable time_shock equal 40000 # time steps for the piston
variable time_unload equal 40000 # time steps for the unload
variable vpiston equal 1.000 # piston speed in (km/s) multiply by ten to obtain (A/ps)
variable Nevery equal 10 # use input values every this many timesteps
variable Nrepeat equal 5 # number of times to use input values for calculating
variable Nfreq equal 200 # calculate averages every this many timesteps 步长
variable deltax equal 8 # thickness of spatial bins in dim (distance units) 切片厚度
variable atomrate equal 1000 # the rate in timestep that atoms are dump as CFG
variable tdamp equal "v_time_step1*100" # DO NOT CHANGE
variable pdamp equal "v_time_step1*1000" # DO NOT CHANGE
# DO NOT CHANGE
variable Up equal "10*v_vpiston"
timestep ${time_step1}


# ---------- Create Atoms ---------------------
#lattice bcc ${alattice} origin 0.0 0.0 0.0 orient x 1 0 0 orient y 0 1 0 orient z 0 0 1
# lattice fcc ${alattice} origin 0.0 0.0 0.0 orient x 1 1 0 orient y 0 0 1 orient z 1 -1 0
# lattice fcc ${alattice} origin 0.0 0.0 0.0 orient x 1 1 1 orient y 1 -1 0 orient z 1 1 -2
# the create box commands create_box natoms idname, where natoms is the number of atoms type
# in the simulation box for this case we only have one type of atoms
# you can use the command "set" to set the different region of atoms to different Ntype
# the command "set" is very useful examples: "set group piston type 1"
# define size of the simulation box
#region sim_box block 0 ${xmax} 0 ${ymax} 0 ${zmax} units lattice
#create_box 2 sim_box
# define atoms in a small region
#region atom_box block 0 ${xmax} 0 ${ymax} 0 ${zmax}
#create_atoms 1 region atom_box
# define a group for the atom_box region
region piston block INF 200 INF INF INF INF units box
region bulk block 200 INF INF INF INF INF units box
group piston region piston
group bulk region bulk
#group Cu type 1
#group Fe type 2
#set group piston type 1
#set group bulk1 type 2
#set group bulk2 type 4


# ---------- Define Interatomic Potential ---------------------
pair_style eam/alloy
pair_coeff * * CuNi.eam.alloy Cu Ni
#mass 1 180.95
#mass 2 180.95
#mass 4 63.54


#---------------能量最小化----------------------
#neighbor 2.0 bin
#neigh_modify every 1 delay 0 check yes
min_style cg # 能量最小化模式 
minimize 1.0e-6 1.0e-6 1000 1000 
compute myCN bulk cna/atom 1
compute myKE bulk ke/atom
compute myPE bulk pe/atom
compute myCOM bulk com
compute vol bulk voronoi/atom
compute peratom bulk stress/atom NULL
compute vx bulk property/atom vx vy vz


# ------------ Equilibrate ---------------------------------------
reset_timestep 0
# Now, assign the initial velocities using Maxwell-Boltzmann distribution
velocity all create ${stemperature} ${myseed} rot yes dist gaussian
fix equilibration bulk npt temp ${stemperature} ${stemperature} ${tdamp} iso 0 0 ${pdamp} drag 1
variable eq1 equal "step"
variable eq2 equal "pxx/10000"
variable eq3 equal "pyy/10000"
variable eq4 equal "pzz/10000"
variable eq5 equal "lx"
variable eq6 equal "ly"
variable eq7 equal "lz"
variable eq8 equal "temp"
variable eq9 equal "etotal"
fix output1 bulk print 20 "${eq1} ${eq2} ${eq3} ${eq4} ${eq5} ${eq6} ${eq7} ${eq8} ${eq9}" file run.out screen no
thermo 20
thermo_style custom step pxx pyy pzz lx ly lz temp etotal
dump 1 all cfg ${time_eq} CuNi.copper.*.cfg mass type xs ys zs
run ${time_eq}
unfix equilibration
unfix output1
undump 1


# -------------- Shock -------------------------------------------
change_box all boundary s p p
reset_timestep 0
timestep ${time_step2}
# WE CREATE A PISTON USING A FEW LAYERS OF ATOMS AND THEN WE GIVE IT
# A CONSTANT POSTIVE SPEED. YOU COULD ALSO USE LAMMPS' FIX WALL/PISTON COMMAND
fix 1 all nve
velocity piston set v_Up NULL NULL sum yes units box
# WE CREATE BINS IN ORDER TO TRACK THE PASSING OF THE SHOCKWAVE
compute d1 all chunk/atom bin/1d x lower ${deltax}
fix density_profile bulk ave/chunk ${Nevery} ${Nrepeat} ${Nfreq} d1 density/mass density/number norm sample file denz.profile 
variable temp atom c_myKE/(1.5*8.61e-5)
compute d2 all chunk/atom bin/1d x lower ${deltax}
fix temp_profile bulk ave/chunk ${Nevery} ${Nrepeat} ${Nfreq} d2 v_temp file temp.profile
variable meanpress atom -(c_peratom[1]+c_peratom[2]+c_peratom[3])/3/(c_vol[1]+1e-99) #加上1e-99避免分母为0，导致程序运行失败
variable pressurexx atom -c_peratom[1]/(c_vol[1]+1e-99) #加上1e-99避免分母为0，导致程序运行失败
variable pshear atom 0.5*(c_peratom[1]/10000-0.5*(c_peratom[2]/10000+c_peratom[3]/10000))/(c_vol[1]+1e-99)
compute d3 all chunk/atom bin/1d x lower 8
fix pressure_profile bulk ave/chunk ${Nevery} ${Nrepeat} ${Nfreq} d3 v_meanpress v_pressurexx v_pshear temp file pressure.profile
compute d4 all chunk/atom bin/1d x lower ${deltax}
fix velZ_profile bulk ave/chunk ${Nevery} ${Nrepeat} ${Nfreq} d4 c_vx[1] temp file velocityZcomp.profile
compute d5 all chunk/atom bin/1d x lower 20
#fix vz_profile bulk ave/chunk ${Nevery} ${Nrepeat} ${Nfreq} c_vx[1] file vz1.profile
variable eq1 equal "step"
variable eq2 equal "pxx/10000"
variable eq3 equal "pyy/10000"
variable eq4 equal "pzz/10000"
variable eq5 equal "lx"
variable eq6 equal "ly"
variable eq7 equal "lz"
variable eq8 equal "temp"
variable eq9 equal "etotal"
variable eq10 equal "c_myCOM[1]"
variable eq11 equal "vol"
variable shear equal "0.5*(pxx/10000 - 0.5*(pyy/10000 + pzz/10000))"
variable out12 equal "v_shear"
fix shock bulk print 10 "${eq1} ${eq2} ${eq3} ${eq4} ${eq5} ${eq6} ${eq7} ${eq8} ${eq9} ${eq10} ${eq11} ${out12}" file run.${stemperature}K.out screen no
thermo 30
thermo_style custom step pxx pyy pzz lx ly lz temp etotal c_myCOM[1] #定义先后顺序
#Use cfg for AtomEye
dump 1 all cfg ${atomrate} dump._*.cfg mass type xs ys zs c_myPE c_myKE c_myCN v_temp v_meanpress v_pressurexx v_pshear c_vx[1] c_vx[2] c_vx[3]
run ${time_shock}


# -------------- unload -------------------------------------------
#fix 1 all nve#命令执行 NVE 积分更新体系所有粒子位置和速度
#velocity piston set 0 0 0 sum no units box
#fix 2 piston setforce 0.0 0.0 0.0 
#run ${time_unload}