# ---------- Initialize Simulation ---------------------
clear
units metal
dimension 3
boundary p p p
atom_style atomic
atom_modify map array


# ---------- read data ---------------------
read_data Total.lmp


# ---------- define variables ---------------------参数改动
variable stemperature equal 300 # temperature in kelvin
variable myseed equal 12345 # the value seed for the velocity
variable time_step1 equal 0.001 # time step in pico seconds
variable time_step2 equal 0.001 # time step in pico seconds
variable time_eq equal 50000 # time steps for the equlibration part
variable time_shock equal 80000 # time steps for the piston
#variable time_unload equal 40000 # time steps for the unload
variable vpiston equal 1.000 # piston speed in (km/s) multiply by ten to obtain (A/ps)
variable Nevery equal 10 # use input values every this many timesteps
variable Nrepeat equal 5 # number of times to use input values for calculating
variable Nfreq equal 200 # calculate averages every this many timesteps 计算的平均步长
variable deltax equal 8 # thickness of spatial bins in dim (distance units) 切片厚度
variable atomrate equal 1000 # the rate in timestep that atoms are dump as CFG
variable tdamp equal "v_time_step1*100" # DO NOT CHANGE
variable pdamp equal "v_time_step1*1000" # DO NOT CHANGE
# DO NOT CHANGE
variable Up equal "10*v_vpiston"
timestep ${time_step1}


# ---------- Create Atoms ---------------------模型改动
region piston block INF 200 INF INF INF INF units box
region bulk block 200 INF INF INF INF INF units box
group piston region piston
group bulk region bulk



# ---------- Define Interatomic Potential ---------------------
pair_style eam/alloy
pair_coeff * * CuNi.eam.alloy Cu Ni


#---------------能量最小化----------------------
min_style cg # 能量最小化模式 
minimize 1.0e-6 1.0e-6 1000 1000 
compute myCN bulk cna/atom 1
compute myKE bulk ke/atom
compute myPE bulk pe/atom
compute myCOM bulk com
compute csp bulk centro/atom 12
compute vol bulk voronoi/atom
compute peratom bulk stress/atom NULL
compute vx bulk property/atom vx vy vz
compute newT bulk temp/partial 0 1 1
	

# ------------ Equilibrate ---------------------------------------
reset_timestep 0
# Now, assign the initial velocities using Maxwell-Boltzmann distribution
velocity all create ${stemperature} ${myseed} rot yes dist gaussian
fix equilibration bulk npt temp ${stemperature} ${stemperature} ${tdamp} iso 0 0 ${pdamp} drag 1
variable eq1 equal "step"
variable eq2 equal "pxx/10000"
variable eq3 equal "pyy/10000"
variable eq4 equal "pzz/10000"
variable eq5 equal "lx"
variable eq6 equal "ly"
variable eq7 equal "lz"
variable eq8 equal "temp"
variable eq9 equal "etotal"
fix output1 bulk print 20 "${eq1} ${eq2} ${eq3} ${eq4} ${eq5} ${eq6} ${eq7} ${eq8} ${eq9}" file run.out screen no
thermo 20
thermo_style custom step pxx pyy pzz lx ly lz temp etotal
dump 1 all cfg ${time_eq} CuNi.copper.*.cfg mass type xs ys zs
run ${time_eq}
unfix equilibration
unfix output1
undump 1


# -------------- Shock -------------------------------------------
change_box all boundary s p p
reset_timestep 0
timestep ${time_step2}
fix 1 all nve
velocity piston set v_Up NULL NULL sum yes units box

compute d1 all chunk/atom bin/1d x lower ${deltax}
fix density_profile bulk ave/chunk ${Nevery} ${Nrepeat} ${Nfreq} d1 density/mass density/number norm sample file denz.profile 

variable newT atom c_newT


compute d2 all chunk/atom bin/1d x lower ${deltax}
fix temp_profile bulk ave/chunk ${Nevery} ${Nrepeat} ${Nfreq} d2 v_newT file temp.profile

variable meanpress atom -(c_peratom[1]+c_peratom[2]+c_peratom[3])/3/(c_vol[1]+1e-99) #加上1e-99避免分母为0，导致程序运行失败
variable pressurexx atom -c_peratom[1]/(c_vol[1]+1e-99) #加上1e-99避免分母为0，导致程序运行失败
variable pshear atom 0.5*(c_peratom[1]/10000-0.5*(c_peratom[2]/10000+c_peratom[3]/10000))/(c_vol[1]+1e-99)

compute d3 all chunk/atom bin/1d x lower ${deltax}
fix pressure_profile bulk ave/chunk ${Nevery} ${Nrepeat} ${Nfreq} d3 v_meanpress v_pressurexx v_pshear v_newT file pressure.profile

compute d4 all chunk/atom bin/1d x lower ${deltax}
fix velZ_profile bulk ave/chunk ${Nevery} ${Nrepeat} ${Nfreq} d4 c_vx[1] v_newT file velocityZcomp.profile

compute myRDF all rdf 300
fix rdf_profile all ave/time ${Nevery} ${Nrepeat} ${Nfreq} c_myRDF[*] file tmp.rdf mode vector

variable eq1 equal "step"
variable eq2 equal "pxx/10000"
variable eq3 equal "pyy/10000"
variable eq4 equal "pzz/10000"
variable eq5 equal "lx"
variable eq6 equal "ly"
variable eq7 equal "lz"
variable eq8 equal "temp"
variable eq9 equal "etotal"
variable eq10 equal "c_myCOM[1]"
variable eq11 equal "vol"
variable shear equal "0.5*(pxx/10000 - 0.5*(pyy/10000 + pzz/10000))"
variable out12 equal "v_shear"
fix shock bulk print 10 "${eq1} ${eq2} ${eq3} ${eq4} ${eq5} ${eq6} ${eq7} ${eq8} ${eq9} ${eq10} ${eq11} ${out12}" file run.${stemperature}K.out screen no
thermo 30
thermo_style custom step pxx pyy pzz lx ly lz temp etotal c_myCOM[1] #定义先后顺序
#Use cfg for AtomEye
dump 1 all cfg ${atomrate} dump._*.cfg mass type xs ys zs c_myPE c_myKE c_myCN v_newT c_csp v_meanpress v_pressurexx v_pshear c_vx[1] c_vx[2] c_vx[3]
run ${time_shock}


# -------------- unload -------------------------------------------
#fix 1 all nve#命令执行 NVE 积分更新体系所有粒子位置和速度
#velocity piston set 0 0 0 sum no units box
#fix 2 piston setforce 0.0 0.0 0.0 
#run ${time_unload}